p cnf 610 730
a 1 2 3 4 5 6 7 8 9 10 11 12 13 14 15 16 17 18 19 20 21 22 23 24 25 26 27 28 29 30 31 32 33 34 35 36 37 38 39 40 41 42 43 44 45 46 47 48 49 50 51 52 53 54 0
d 55 37 38 0
d 56 39 40 0
d 57 41 42 0
d 58 43 44 0
d 59 45 46 0
d 60 47 48 0
d 61 49 50 0
d 62 51 52 0
d 63 37 38 39 40 41 42 43 44 45 46 47 48 49 50 51 52 53 54 0
d 64 37 38 39 40 41 42 43 44 45 46 47 48 49 50 51 52 53 54 0
d 65 37 38 39 40 41 42 43 44 45 46 47 48 49 50 51 52 53 54 0
e 67 70 76 79 82 93 101 108 114 115 121 128 138 139 143 145 146 150 152 153 157 159 169 178 187 196 205 214 219 228 237 243 254 263 271 279 287 295 303 311 322 339 347 354 384 385 389 391 392 396 400 402 412 421 431 440 449 458 487 498 507 515 523 531 539 547 555 578 592 593 594 595 596 597 598 599 600 601 602 603 604 605 606 607 0
-1 -67 0
2 -67 0
1 -2 67 0
-4 -70 0
6 -70 0
4 -6 70 0
-8 -93 -114 115 0
8 -10 -93 0
10 -24 -28 34 67 70 76 79 82 93 0
-12 -76 0
14 -76 0
12 -14 76 0
-16 -79 0
18 -79 0
16 -18 79 0
-20 -82 0
22 -82 0
20 -22 82 0
-24 -93 138 0
24 -26 -93 0
-8 26 30 -32 67 70 76 79 82 93 0
-28 -93 145 0
26 -139 0
-32 -93 152 0
32 -34 -93 0
-67 -93 0
-70 -93 0
8 -10 13 -159 187 0
-76 -93 0
-79 -93 0
-82 -93 0
24 -26 139 0
28 -30 146 0
32 -34 153 0
67 93 -169 0
-2 5 -93 -159 169 0
10 -24 30 -32 67 70 76 79 82 93 0
-8 26 30 34 67 70 76 79 82 93 0
5 -67 -159 169 0
10 -24 30 34 67 70 76 79 82 93 0
-2 3 -93 101 0
2 -347 0
3 -67 101 0
10 -24 -28 -32 67 70 76 79 82 93 0
-3 -101 0
-2 3 55 -64 347 0
70 93 -178 0
-6 9 -93 -159 178 0
17 -58 64 -121 440 0
10 26 30 -32 67 70 76 79 82 93 0
9 -70 -159 178 0
-23 57 58 59 64 347 354 389 396 400 402 0
-6 7 -93 108 0
10 26 30 34 67 70 76 79 82 93 0
10 26 -28 34 67 70 76 79 82 93 0
6 -354 0
7 -70 108 0
57 64 -431 0
-7 -108 0
-6 7 56 -64 354 0
13 -115 187 0
-10 13 -93 -159 187 0
-57 -58 -60 -64 128 347 354 389 396 400 402 0
-8 -24 -28 -32 67 70 76 79 82 93 0
-11 -114 0
10 -114 0
114 -115 0
-8 -24 -28 34 67 70 76 79 82 93 0
-23 76 93 101 108 115 128 143 150 157 159 0
-93 -121 -159 0
76 82 93 101 108 115 128 143 150 157 159 0
-76 -121 -159 0
-14 17 -93 -159 196 0
-23 76 79 93 101 108 115 143 150 157 159 0
22 76 93 101 108 115 128 143 150 157 159 0
-15 -121 0
14 -121 0
76 93 -196 0
82 93 101 108 115 121 128 143 150 157 159 0
17 -76 -159 196 0
-93 -128 -159 0
22 101 108 115 121 128 143 150 157 159 0
-79 -128 -159 0
-18 21 -93 -159 205 0
-23 79 93 101 108 115 121 143 150 157 159 0
-23 101 108 115 121 128 143 150 157 159 0
-19 -128 0
18 -128 0
79 93 -205 0
121 159 -196 0
17 -93 -121 196 0
-22 23 -93 -159 0
23 -82 -159 0
-22 25 -93 -159 214 0
22 114 121 128 347 354 389 396 400 402 0
60 64 -458 0
-23 114 121 128 347 354 389 396 400 402 0
23 25 -82 214 0
-23 -58 -64 114 128 347 354 389 396 400 402 0
93 -138 0
-24 -139 0
-8 -24 30 34 67 70 76 79 82 93 0
-93 -139 0
-8 -24 30 -32 67 70 76 79 82 93 0
24 -26 -138 0
-138 -143 -219 -243 0
138 139 -143 0
27 -139 143 0
26 -389 0
-139 -143 -219 -243 0
138 139 169 178 187 196 205 214 228 237 243 0
-27 -143 0
-219 -385 -389 -487 0
93 -145 0
-28 -146 0
-8 26 -28 34 67 70 76 79 82 93 0
-93 -146 0
-8 26 -28 -32 67 70 76 79 82 93 0
28 -30 -145 0
-145 -150 -228 -243 0
145 146 -150 0
31 -146 150 0
30 -396 0
-146 -150 -228 -243 0
145 146 169 178 187 196 205 214 219 237 243 0
-31 -150 0
-228 -392 -396 -487 0
93 -152 0
-32 -153 0
34 -153 0
-93 -153 0
30 -146 0
32 -34 -152 0
-152 -157 -237 -243 0
152 153 -157 0
35 -153 157 0
34 -400 0
-153 -157 -237 -243 0
152 153 169 178 187 196 205 214 219 228 243 0
-35 -157 0
-34 35 -65 400 0
-101 -159 0
-108 -159 0
-115 -159 0
17 -76 -121 196 0
21 -79 -128 205 0
22 57 58 64 128 347 354 389 396 400 402 0
-143 -159 0
-150 -159 0
-157 -159 0
-59 -64 -449 0
-23 -57 -64 121 128 347 354 389 396 400 402 0
67 93 -101 0
-23 159 -214 0
-22 23 -60 64 -402 0
5 -67 -101 169 0
-58 -64 -440 0
2 -169 0
-2 5 55 -64 -402 412 0
-5 -169 0
2 -412 0
101 159 -169 0
5 -93 -101 169 0
70 93 -108 0
9 -70 -108 178 0
6 -178 0
-6 9 56 -64 -402 421 0
-9 -178 0
6 -421 0
108 159 -178 0
9 -93 -108 178 0
8 93 -114 115 0
-8 93 -187 0
10 -187 0
-23 -59 -64 114 121 347 354 389 396 400 402 0
-13 -187 0
10 -431 0
115 159 -187 0
-8 93 -115 0
76 79 82 93 101 108 115 143 150 157 159 0
14 -196 0
58 64 -440 0
-17 -196 0
14 -440 0
22 76 79 93 101 108 115 143 150 157 159 0
128 159 -205 0
79 82 93 101 108 115 121 143 150 157 159 0
18 -205 0
22 -57 -58 -64 128 347 354 389 396 400 402 0
32 -34 36 322 -402 498 -592 0
-21 -205 0
18 -449 0
21 -93 -128 205 0
22 79 93 101 108 115 121 143 150 157 159 0
-23 -57 -59 -64 121 347 354 389 396 400 402 0
-22 23 25 -93 214 0
22 -214 0
-114 -431 0
-25 -214 0
22 -458 0
22 -58 -64 114 128 347 354 389 396 400 402 0
-145 -159 -228 -243 0
-26 27 -138 143 0
145 146 157 159 169 178 187 196 205 214 219 243 0
-139 -159 -219 -243 0
143 157 159 169 178 187 196 205 214 228 243 0
143 150 152 153 159 169 178 187 196 205 214 243 0
-29 -219 0
26 -219 0
143 145 146 152 153 159 169 178 187 196 205 214 243 0
157 159 169 178 187 196 205 214 219 228 243 0
143 150 159 169 178 187 196 205 214 237 243 0
138 139 150 159 169 178 187 196 205 214 237 243 0
138 139 145 146 169 178 187 196 205 214 237 243 0
138 139 152 153 169 178 187 196 205 214 228 243 0
-30 31 -145 150 0
169 178 187 196 205 214 219 228 237 243 0
145 146 152 153 169 178 187 196 205 214 219 243 0
-146 -159 -228 -243 0
-138 -159 -219 -243 0
143 145 146 157 159 169 178 187 196 205 214 243 0
138 139 157 159 169 178 187 196 205 214 228 243 0
150 152 153 159 169 178 187 196 205 214 219 243 0
-33 -228 0
30 -228 0
143 145 146 159 169 178 187 196 205 214 237 243 0
138 139 150 152 153 159 169 178 187 196 205 214 243 0
143 150 157 159 169 178 187 196 205 214 243 0
138 139 145 146 157 159 169 178 187 196 205 214 243 0
-34 35 -152 157 0
150 157 159 169 178 187 196 205 214 219 243 0
138 139 150 157 159 169 178 187 196 205 214 243 0
-153 -159 -237 -243 0
150 159 169 178 187 196 205 214 219 237 243 0
-36 -237 0
34 -237 0
143 159 169 178 187 196 205 214 228 237 243 0
-169 -243 0
-178 -243 0
-187 -243 0
-196 -243 0
-205 -243 0
-214 -243 0
138 139 145 146 152 153 169 178 187 196 205 214 243 0
143 152 153 159 169 178 187 196 205 214 228 243 0
-152 -159 -237 -243 0
1 -2 3 -243 254 0
-1 93 -254 0
-2 5 -93 -159 254 0
1 -2 -159 -243 254 0
-3 159 -254 0
-2 -93 -159 -243 254 0
-2 3 -93 -243 254 0
-5 243 -254 0
2 -254 0
1 -2 3 5 254 0
1 -2 5 -159 254 0
-2 3 5 -93 254 0
4 -6 7 -243 263 0
-4 93 -263 0
-6 9 -93 -159 263 0
4 -6 -159 -243 263 0
-7 159 -263 0
-6 -93 -159 -243 263 0
-6 7 -93 -243 263 0
-9 243 -263 0
4 -6 7 9 263 0
4 -6 9 -159 263 0
-6 7 9 -93 263 0
6 -263 0
8 -10 11 -243 271 0
-8 93 -271 0
-10 13 -93 -159 271 0
8 -10 -159 -243 271 0
-11 159 -271 0
-10 -93 -159 -243 271 0
-10 11 -93 -243 271 0
-13 243 -271 0
8 -10 11 13 271 0
8 -10 13 -159 271 0
-10 11 13 -93 271 0
10 -271 0
12 -14 15 -243 279 0
-12 93 -279 0
-14 17 -93 -159 279 0
12 -14 -159 -243 279 0
-15 159 -279 0
-14 -93 -159 -243 279 0
-14 15 -93 -243 279 0
-17 243 -279 0
12 -14 15 17 279 0
12 -14 17 -159 279 0
-14 15 17 -93 279 0
14 -279 0
16 -18 19 -243 287 0
-16 93 -287 0
-18 21 -93 -159 287 0
16 -18 -159 -243 287 0
-19 159 -287 0
-18 -93 -159 -243 287 0
-18 19 -93 -243 287 0
-21 243 -287 0
16 -18 19 21 287 0
16 -18 21 -159 287 0
-18 19 21 -93 287 0
18 -287 0
20 -22 23 -243 295 0
-20 93 -295 0
-22 25 -93 -159 295 0
20 -22 -159 -243 295 0
-23 159 -295 0
-22 -93 -159 -243 295 0
-22 23 -93 -243 295 0
-25 243 -295 0
20 -22 23 25 295 0
20 -22 25 -159 295 0
-22 23 25 -93 295 0
22 -295 0
24 -26 27 -243 303 0
-24 93 -303 0
-26 29 -93 -159 303 0
24 -26 -159 -243 303 0
-27 159 -303 0
-26 -93 -159 -243 303 0
-26 27 -93 -243 303 0
-29 243 -303 0
24 -26 27 29 303 0
24 -26 29 -159 303 0
-26 27 29 -93 303 0
26 -303 0
28 -30 31 -243 311 0
-28 93 -311 0
-30 33 -93 -159 311 0
28 -30 -159 -243 311 0
-31 159 -311 0
-30 -93 -159 -243 311 0
-30 31 -93 -243 311 0
-33 243 -311 0
28 -30 31 33 311 0
28 -30 33 -159 311 0
-30 31 33 -93 311 0
30 -311 0
32 -34 35 -243 254 322 0
-32 93 263 271 279 287 295 303 311 -322 0
-34 36 -93 -159 254 322 0
32 -34 -159 -243 254 322 0
-35 159 263 271 279 287 295 303 311 -322 0
-34 -93 -159 -243 254 322 0
-34 35 -93 -243 254 322 0
-36 243 263 271 279 287 295 303 311 -322 0
-34 35 36 -93 254 322 0
34 263 271 279 287 295 303 311 -322 0
32 -34 35 36 254 322 0
32 -34 36 -159 254 322 0
254 -263 322 0
254 -271 322 0
254 -279 322 0
254 -287 322 0
254 -295 322 0
254 -303 322 0
-254 -322 0
254 -311 322 0
263 -271 339 0
271 -279 -339 0
263 271 279 287 -507 -592 0
263 271 279 287 -515 -592 0
263 271 279 287 -523 -592 0
-271 507 515 523 531 -592 0
279 287 -295 -578 -592 0
271 287 -295 -339 0
263 271 -287 578 -592 0
263 271 279 287 -531 -592 0
-271 -578 -592 0
263 279 -287 -303 339 0
263 271 295 303 578 -592 0
-263 -578 -592 0
263 279 295 -303 339 0
263 279 295 311 339 0
271 303 -311 -339 0
263 279 -287 311 339 0
279 287 -303 -578 -592 0
-263 -339 0
55 64 -412 0
-55 -64 -412 0
5 -347 412 0
-2 3 -55 64 347 0
-55 -64 -347 0
10 26 -28 -32 67 70 76 79 82 93 0
-3 -347 0
2 -101 0
56 64 -421 0
9 -354 421 0
-56 -64 -421 0
-6 7 -56 64 354 0
-56 -64 -354 0
21 -59 64 -128 449 0
-7 -354 0
6 -108 0
57 58 59 60 64 347 354 389 396 400 402 0
-57 64 -114 -402 0
-57 -60 -64 121 128 347 354 389 396 400 402 0
57 -64 -114 -402 0
-10 13 -57 64 114 402 431 0
22 57 64 121 128 347 354 389 396 400 402 0
-23 57 64 121 128 347 354 389 396 400 402 0
-10 11 114 0
-402 -431 0
57 59 60 64 121 347 354 389 396 400 402 0
-22 25 60 -64 -402 458 0
58 60 64 114 128 347 354 389 396 400 402 0
-58 64 -121 -402 0
-23 58 64 114 128 347 354 389 396 400 402 0
58 -64 -121 -402 0
-14 17 -58 64 -402 440 0
-58 -60 -64 114 128 347 354 389 396 400 402 0
22 -57 -59 -64 121 347 354 389 396 400 402 0
-14 15 121 0
121 402 -440 0
57 58 60 64 128 347 354 389 396 400 402 0
-57 -58 -59 -60 -64 347 354 389 396 400 402 0
59 60 64 114 121 347 354 389 396 400 402 0
-59 64 -128 -402 0
22 58 59 64 114 347 354 389 396 400 402 0
59 -64 -128 -402 0
22 -59 -64 114 121 347 354 389 396 400 402 0
-18 21 -59 64 -402 449 0
-59 -60 -64 114 121 347 354 389 396 400 402 0
-23 59 64 114 121 347 354 389 396 400 402 0
-18 19 128 0
128 402 -449 0
57 60 64 121 128 347 354 389 396 400 402 0
-60 -64 114 121 128 347 354 389 396 400 402 0
60 64 114 121 128 347 354 389 396 400 402 0
-22 23 25 -60 64 458 0
22 -57 -64 121 128 347 354 389 396 400 402 0
-22 23 25 60 -64 458 0
-23 -57 -58 -59 -64 347 354 389 396 400 402 0
-22 25 -60 64 -402 458 0
-57 -59 -60 -64 121 347 354 389 396 400 402 0
-23 -57 -58 -64 128 347 354 389 396 400 402 0
59 64 -449 0
-57 -64 -431 0
82 93 -214 0
-23 402 -458 0
-64 -384 0
61 -384 0
-61 64 384 0
64 -385 0
-61 -385 0
61 -64 385 0
-219 -384 -389 -487 0
384 385 -389 0
-26 27 -385 389 0
-23 58 59 64 114 347 354 389 396 400 402 0
237 384 385 396 402 412 421 431 440 449 458 487 0
-27 -389 0
26 -143 0
-64 -391 0
62 -391 0
-62 64 391 0
64 -392 0
-62 -392 0
62 -64 392 0
-228 -391 -396 -487 0
391 392 -396 0
-30 31 -392 396 0
21 -79 -159 205 0
65 384 385 391 392 412 421 431 440 449 458 487 0
-31 -396 0
30 -150 0
25 -82 -159 214 0
65 -400 0
-35 -400 0
34 -157 0
-347 -402 0
-354 -402 0
17 58 -64 -121 440 0
21 59 -64 -128 449 0
-22 23 60 -64 -402 0
-389 -402 0
-396 -402 0
-400 -402 0
22 58 64 114 128 347 354 389 396 400 402 0
55 64 -347 0
-2 5 -55 64 -402 412 0
347 402 -412 0
-5 -412 0
56 64 -354 0
-6 9 -56 64 -402 421 0
354 402 -421 0
-9 -421 0
22 57 58 59 64 347 354 389 396 400 402 0
-34 -63 322 -402 -487 498 -592 0
22 57 59 64 121 347 354 389 396 400 402 0
-10 13 57 -64 114 402 431 0
-13 -431 0
-14 17 58 -64 -402 440 0
-34 36 -63 322 -402 498 -592 0
-23 57 59 64 121 347 354 389 396 400 402 0
-58 -59 -60 -64 114 347 354 389 396 400 402 0
-17 -440 0
-18 21 59 -64 -402 449 0
22 -57 -58 -59 -64 347 354 389 396 400 402 0
22 59 64 114 121 347 354 389 396 400 402 0
-21 -449 0
-279 507 515 523 531 -592 0
58 59 60 64 114 347 354 389 396 400 402 0
-60 -64 -458 0
-25 -458 0
389 391 392 400 402 412 421 431 440 449 458 487 0
-26 27 -384 389 0
228 237 389 402 412 421 431 440 449 458 487 0
-219 -385 -402 -487 0
-228 -391 -402 -487 0
65 228 389 402 412 421 431 440 449 458 487 0
-26 29 219 0
219 391 392 400 402 412 421 431 440 449 458 487 0
219 237 391 392 412 421 431 440 449 458 487 0
237 389 396 402 412 421 431 440 449 458 487 0
65 219 391 392 412 421 431 440 449 458 487 0
65 219 228 412 421 431 440 449 458 487 0
237 389 391 392 402 412 421 431 440 449 458 487 0
-30 31 -391 396 0
384 385 391 392 400 402 412 421 431 440 449 458 487 0
219 228 400 402 412 421 431 440 449 458 487 0
-228 -392 -402 -487 0
-219 -384 -402 -487 0
219 228 237 412 421 431 440 449 458 487 0
219 237 396 402 412 421 431 440 449 458 487 0
228 384 385 400 402 412 421 431 440 449 458 487 0
-30 33 228 0
65 228 384 385 412 421 431 440 449 458 487 0
219 396 400 402 412 421 431 440 449 458 487 0
389 396 400 402 412 421 431 440 449 458 487 0
237 384 385 391 392 412 421 431 440 449 458 487 0
-65 -237 -402 -487 0
228 237 384 385 412 421 431 440 449 458 487 0
384 385 396 400 402 412 421 431 440 449 458 487 0
-237 -400 -487 0
65 384 385 396 402 412 421 431 440 449 458 487 0
-34 36 237 0
65 389 391 392 402 412 421 431 440 449 458 487 0
-412 -487 0
-421 -487 0
-431 -487 0
-440 -487 0
-449 -487 0
-458 -487 0
228 389 400 402 412 421 431 440 449 458 487 0
65 219 396 402 412 421 431 440 449 458 487 0
65 389 396 402 412 421 431 440 449 458 487 0
1 -2 3 -487 498 0
-1 63 -498 0
-2 5 -63 -402 498 0
1 -2 -402 -487 498 0
-3 402 -498 0
-2 -63 -402 -487 498 0
-2 3 -63 -487 498 0
-5 487 -498 0
2 -498 0
1 -2 3 5 498 0
1 -2 5 -402 498 0
-2 3 5 -63 498 0
4 -6 7 -487 507 0
-4 63 -507 0
-6 9 -63 -402 507 0
4 -6 -402 -487 507 0
-7 402 -507 0
-6 -63 -402 -487 507 0
-6 7 -63 -487 507 0
-9 487 -507 0
4 -6 7 9 507 0
4 -6 9 -402 507 0
-6 7 9 -63 507 0
6 -507 0
8 -10 11 -487 515 0
-8 63 -515 0
-10 13 -63 -402 515 0
8 -10 -402 -487 515 0
-11 402 -515 0
-10 -63 -402 -487 515 0
-10 11 -63 -487 515 0
-13 487 -515 0
8 -10 11 13 515 0
8 -10 13 -402 515 0
-10 11 13 -63 515 0
10 -515 0
12 -14 15 -487 523 0
-12 63 -523 0
-14 17 -63 -402 523 0
12 -14 -402 -487 523 0
-15 402 -523 0
-14 -63 -402 -487 523 0
-14 15 -63 -487 523 0
-17 487 -523 0
12 -14 15 17 523 0
12 -14 17 -402 523 0
-14 15 17 -63 523 0
14 -523 0
16 -18 19 -487 531 0
-16 63 -531 0
-18 21 -63 -402 531 0
16 -18 -402 -487 531 0
-19 402 -531 0
-18 -63 -402 -487 531 0
-18 19 -63 -487 531 0
-21 487 -531 0
16 -18 19 21 531 0
16 -18 21 -402 531 0
-18 19 21 -63 531 0
18 -531 0
20 -22 23 -487 539 0
-20 63 -539 0
-22 25 -63 -402 539 0
20 -22 -402 -487 539 0
-23 402 -539 0
-22 -63 -402 -487 539 0
-22 23 -63 -487 539 0
-25 487 -539 0
20 -22 23 25 539 0
20 -22 25 -402 539 0
-22 23 25 -63 539 0
22 -539 0
24 -26 27 -487 547 0
-24 63 -547 0
-26 29 -63 -402 547 0
24 -26 -402 -487 547 0
-27 402 -547 0
-26 -63 -402 -487 547 0
-26 27 -63 -487 547 0
-29 487 -547 0
24 -26 27 29 547 0
24 -26 29 -402 547 0
-26 27 29 -63 547 0
26 -547 0
28 -30 31 -487 555 0
-28 63 -555 0
-30 33 -63 -402 555 0
28 -30 -402 -487 555 0
-31 402 -555 0
-30 -63 -402 -487 555 0
-30 31 -63 -487 555 0
-33 487 -555 0
28 -30 31 33 555 0
28 -30 33 -402 555 0
-30 31 33 -63 555 0
30 -555 0
-32 63 -322 507 515 523 531 539 547 555 -592 0
-34 35 -63 322 -487 498 -592 0
-35 -322 402 507 515 523 531 539 547 555 -592 0
-34 35 36 -63 322 498 -592 0
-36 -322 487 507 515 523 531 539 547 555 -592 0
32 -34 35 36 322 498 -592 0
32 -34 322 -402 -487 498 -592 0
34 -322 507 515 523 531 539 547 555 -592 0
32 -34 35 322 -487 498 -592 0
322 498 -507 -592 0
322 498 -515 -592 0
322 498 -523 -592 0
322 498 -547 -592 0
322 498 -539 -592 0
339 507 -515 -592 0
507 515 539 547 578 0
523 531 -539 -578 0
-339 515 531 -539 -592 0
339 507 523 -531 -547 -592 0
-23 57 58 64 128 347 354 389 396 400 402 0
-23 -58 -59 -64 114 347 354 389 396 400 402 0
523 531 -547 -578 0
507 515 -523 578 0
-507 -578 0
-515 -578 0
339 507 523 -531 555 -592 0
507 515 -531 578 0
263 271 -279 578 -592 0
-339 515 547 -555 -592 0
-339 515 -523 -592 0
22 -58 -59 -64 114 347 354 389 396 400 402 0
-63 93 -592 0
63 -93 -592 0
159 -402 -592 0
-159 402 -592 0
243 -487 -592 0
-243 487 -592 0
-322 -498 -592 0
322 498 -531 -592 0
322 498 -555 -592 0
-263 507 515 523 531 -592 0
339 507 523 539 -547 -592 0
339 507 523 539 555 -592 0
-339 -507 -592 0
-1 -37 -593 0
1 37 -593 0
-2 -38 -594 0
2 38 -594 0
-4 -39 -595 0
4 39 -595 0
-6 -40 -596 0
6 40 -596 0
-8 -41 -597 0
8 41 -597 0
-10 -42 -598 0
10 42 -598 0
-12 -43 -599 0
12 43 -599 0
-14 -44 -600 0
14 44 -600 0
-16 -45 -601 0
16 45 -601 0
-18 -46 -602 0
18 46 -602 0
-20 -47 -603 0
20 47 -603 0
-22 -48 -604 0
22 48 -604 0
-24 -49 -605 0
24 49 -605 0
-26 -50 -606 0
26 50 -606 0
-28 -51 -607 0
28 51 -607 0
-30 -32 34 -52 -53 54 592 593 594 595 596 597 598 599 600 601 602 603 604 605 606 607 0
30 32 34 52 53 54 592 593 594 595 596 597 598 599 600 601 602 603 604 605 606 607 0
-30 32 -34 -52 53 -54 592 593 594 595 596 597 598 599 600 601 602 603 604 605 606 607 0
-30 -32 -34 -52 -53 -54 592 593 594 595 596 597 598 599 600 601 602 603 604 605 606 607 0
30 -32 -34 52 -53 -54 592 593 594 595 596 597 598 599 600 601 602 603 604 605 606 607 0
30 -32 34 52 -53 54 592 593 594 595 596 597 598 599 600 601 602 603 604 605 606 607 0
-30 32 34 -52 53 54 592 593 594 595 596 597 598 599 600 601 602 603 604 605 606 607 0
-287 507 515 523 531 -592 0
30 32 -34 52 53 -54 592 593 594 595 596 597 598 599 600 601 602 603 604 605 606 607 0
